#lmp_openmpi

units		metal
atom_style	atomic

boundary p p p



lattice          fcc 4.05
region           box block 0 15 0 15 0 15
create_box       1 box
create_atoms     1 box




pair_style	eam/alloy
pair_coeff * * Mishin-Ni-Al-2009.eam.alloy Al  

dump     1 all cfg 1 Al*.cfg id type xs ys zs
dump_modify 1 element Al
run                     0
undump 1

timestep 0.005

neighbor                2.0 bin
neigh_modify            delay 5 check yes

thermo                   1000
thermo_style             custom step temp vol etotal pe press pxx pyy pzz lx ly lz

velocity  all create 1500.0 87287 rot yes dist gaussian


fix 1 all npt temp 1500 1500 0.2 iso 0 0 0.1 drag 0.2
run 800000

write_restart npt_1500K.restart

   compute myrdf all rdf 100 1 1
   fix 4 all ave/time 1 1 1000 c_myrdf file 1500K.rdf mode vector
   run 1000 
   unfix 4
unfix 1


reset_timestep 0
restart                  2000000  NPT_CoolDown_Al.restart

fix                      3 all npt temp 1500 500  0.2 iso 0 0  0.1  drag 0.2
run                      20000000

#1e10K/s

write_restart		NPT_500K.restart	

   dump         		 1 all cfg 1 Al*.cfg id type xs ys zs
   dump_modify 1 element Al
   run  0
   undump 1

   compute myrdf2 all rdf 100 1 1
   fix 4 all ave/time 1 1 100 c_myrdf2 file 500K.rdf mode vector
   run 100 
   unfix 4
unfix 3
